10 2 0 3 -1 
-1 5 8 5 -1 
8 4 0 1 -1 
4 6 10 -1 -1 
-1 -1 -1 7 -1 
10 4 7 -1 -1 
2 7 6 9 -1 
10 -1 0 3 -1 
6 -1 -1 1 -1 
5 -1 9 7 -1 
4 -1 0 4 -1 
3 5 5 -1 -1 
7 9 9 9 -1 
8 2 -1 6 -1 
0 3 -1 -1 -1 
-1 1 10 9 -1 
10 8 6 1 -1 
7 -1 -1 1 -1 
-1 10 2 4 -1 
4 -1 9 8 -1 
